
Gurobi 13.0.1 (linux64) logging started Thu Mar 26 08:05:21 2026

Set parameter LogFile to value "logs_sparse/75B_3F_robust_gamma_0d1_theta_0d05199999999999999_2026-03-26_08h05m06s.log"
Set parameter MIPGap to value 0.005
Set parameter OptimalityTol to value 0.005
Gurobi Optimizer version 13.0.1 build v13.0.1rc0 (linux64 - "Linux Mint 22")

CPU model: 12th Gen Intel(R) Core(TM) i7-12700, instruction set [SSE2|AVX|AVX2]
Thread count: 20 physical cores, 20 logical processors, using up to 20 threads

Non-default parameters:
TimeLimit  3600
SoftMemLimit  12
MIPGap  0.005
OptimalityTol  0.005

Optimize a model with 45596 rows, 867096 columns and 2644377 nonzeros (Max)
Model fingerprint: 0xeaf84103
Model has 832586 linear objective coefficients
Variable types: 12096 continuous, 855000 integer (855000 binary)
Coefficient statistics:
  Matrix range     [3e-05, 1e+05]
  Objective range  [1e+00, 3e+03]
  Bounds range     [1e+00, 1e+05]
  RHS range        [1e-02, 1e+05]

Presolve removed 23361 rows and 626499 columns
Presolve time: 1.53s
Presolved: 22235 rows, 240597 columns, 754072 nonzeros
Variable types: 5898 continuous, 234699 integer (234699 binary)
Found heuristic solution: objective -4.08898e+08
Deterministic concurrent LP optimizer: primal simplex, dual simplex, and barrier
Showing barrier log only...

Root barrier log...

Ordering time: 0.48s

Barrier statistics:
 AA' NZ     : 3.860e+05
 Factor NZ  : 3.362e+06 (roughly 130 MB of memory)
 Factor Ops : 9.985e+08 (less than 1 second per iteration)
 Threads    : 18

                  Objective                Residual
Iter       Primal          Dual         Primal    Dual     Compl     Time
   0  -6.77276062e+12  1.19812005e+09  1.96e+08 1.02e+03  8.22e+07     3s
   1  -1.11080194e+12  4.57070890e+09  3.23e+07 1.82e+02  1.39e+07     3s
   2  -2.34683888e+09  3.18546459e+09  7.29e+04 2.73e-11  3.76e+04     3s
   3  -2.04586898e+08  1.18782314e+09  6.73e+03 6.82e-11  4.97e+03     3s
   4   2.49662556e+08  8.25887352e+08  9.47e+02 3.32e-11  1.43e+03     3s
   5   2.78779880e+08  5.38235482e+08  5.80e+02 1.93e-11  6.64e+02     3s
   6   2.86339599e+08  4.73945157e+08  4.61e+02 2.35e-11  4.85e+02     3s
   7   2.94233440e+08  4.21548644e+08  3.61e+02 3.18e-11  3.41e+02     3s
   8   3.05935398e+08  3.59080141e+08  2.04e+02 3.12e-11  1.54e+02     3s
   9   3.15392119e+08  3.38422707e+08  7.75e+01 7.08e-11  6.35e+01     3s
  10   3.18644626e+08  3.30790922e+08  2.97e+01 4.89e-11  3.09e+01     3s
  11   3.20057852e+08  3.23490234e+08  9.31e+00 2.99e-10  8.62e+00     3s
  12   3.20747532e+08  3.22759210e+08  1.18e+00 2.23e-10  4.27e+00     3s
  13   3.20838888e+08  3.21721982e+08  4.55e-01 1.52e-10  1.82e+00     3s
  14   3.20903034e+08  3.21319771e+08  1.34e-01 6.06e-10  8.49e-01     3s
  15   3.20933207e+08  3.21214732e+08  6.76e-02 4.54e-10  5.72e-01     4s
  16   3.20935101e+08  3.21164255e+08  6.46e-02 3.52e-10  4.66e-01     4s
  17   3.20965298e+08  3.21063765e+08  2.96e-02 2.65e-10  2.00e-01     4s
  18   3.20983372e+08  3.21034331e+08  1.07e-02 3.23e-10  1.03e-01     4s
  19   3.20990087e+08  3.21016354e+08  4.06e-03 2.65e-10  5.33e-02     4s
  20   3.20992220e+08  3.21004690e+08  2.31e-03 2.78e-10  2.53e-02     4s
  21   3.20993700e+08  3.21000792e+08  1.18e-03 3.14e-10  1.44e-02     4s
  22   3.20994235e+08  3.20998982e+08  8.05e-04 3.70e-10  9.64e-03     4s
  23   3.20994773e+08  3.20997669e+08  4.59e-04 2.83e-10  5.88e-03     4s
  24   3.20995038e+08  3.20997037e+08  2.86e-04 3.11e-10  4.06e-03     4s
  25   3.20995176e+08  3.20996669e+08  1.98e-04 2.59e-10  3.03e-03     4s
  26   3.20995318e+08  3.20996476e+08  1.17e-04 3.23e-10  2.35e-03     4s
  27   3.20995347e+08  3.20996177e+08  9.88e-05 3.68e-10  1.69e-03     4s
  28   3.20995429e+08  3.20995914e+08  4.87e-05 3.13e-10  9.85e-04     4s
  29   3.20995468e+08  3.20995637e+08  2.67e-05 2.64e-10  3.42e-04     4s
  30   3.20995506e+08  3.20995567e+08  7.09e-06 2.99e-10  1.23e-04     4s
  31   3.20995511e+08  3.20995542e+08  4.68e-06 2.76e-10  6.17e-05     4s
  32   3.20995514e+08  3.20995525e+08  3.46e-06 2.36e-10  2.26e-05     4s
  33   3.20995521e+08  3.20995523e+08  5.39e-07 2.29e-10  5.29e-06     4s
  34   3.20995522e+08  3.20995522e+08  2.23e-08 2.24e-10  2.17e-07     4s
  35   3.20995522e+08  3.20995522e+08  1.13e-08 2.05e-10  2.04e-10     5s

Barrier solved model in 35 iterations and 4.52 seconds (6.43 work units)
Optimal objective 3.20995522e+08

Crossover time: 0.46 seconds (0.48 work units)
Concurrent spin time: 0.39s (can be avoided by choosing Method=3)

Solved with barrier

Root simplex log...

Iteration    Objective       Primal Inf.    Dual Inf.      Time
    9992    3.2099552e+08   0.000000e+00   0.000000e+00      5s

Root relaxation: objective 3.209955e+08, 9992 iterations, 3.43 seconds (3.67 work units)

    Nodes    |    Current Node    |     Objective Bounds      |     Work
 Expl Unexpl |  Obj  Depth IntInf | Incumbent    BestBd   Gap | It/Node Time

     0     0 3.2100e+08    0 6890 -4.089e+08 3.2100e+08   179%     -    6s
H    0     0                    7.806806e+07 3.2100e+08   311%     -    7s
H    0     0                    1.666443e+08 3.2100e+08  92.6%     -    7s
H    0     0                    1.941304e+08 3.2100e+08  65.4%     -    7s
H    0     0                    2.026495e+08 3.2100e+08  58.4%     -    8s
H    0     0                    2.121983e+08 3.2100e+08  51.3%     -    9s
H    0     0                    2.125699e+08 3.2100e+08  51.0%     -    9s
H    0     0                    2.199394e+08 3.2100e+08  45.9%     -   11s
H    0     0                    2.199418e+08 3.2100e+08  45.9%     -   12s
H    0     0                    2.776938e+08 3.2100e+08  15.6%     -   15s
H    0     0                    2.778611e+08 3.2100e+08  15.5%     -   17s
     0     0 3.2100e+08    0 5977 2.7786e+08 3.2100e+08  15.5%     -  295s
H    0     0                    2.854019e+08 3.2100e+08  12.5%     -  323s
H    0     0                    2.854020e+08 3.2100e+08  12.5%     -  404s
     0     0 3.2099e+08    0 6473 2.8540e+08 3.2099e+08  12.5%     -  953s
H    0     0                    2.904469e+08 3.2099e+08  10.5%     -  967s
H    0     0                    2.904535e+08 3.2099e+08  10.5%     -  972s
H    0     0                    2.926384e+08 3.2099e+08  9.69%     -  983s
H    0     0                    2.947652e+08 3.2099e+08  8.90%     -  990s
H    0     0                    3.008358e+08 3.2099e+08  6.70%     - 1047s
H    0     0                    3.018871e+08 3.2099e+08  6.33%     - 1060s
H    0     0                    3.032093e+08 3.2099e+08  5.87%     - 1120s
H    0     0                    3.033910e+08 3.2099e+08  5.80%     - 1224s
H    0     0                    3.033914e+08 3.2099e+08  5.80%     - 1266s
     0     0 3.2099e+08    0 6242 3.0339e+08 3.2099e+08  5.80%     - 1302s
     0     0 3.2099e+08    0 6620 3.0339e+08 3.2099e+08  5.80%     - 1654s
     0     0 3.2099e+08    0 6645 3.0339e+08 3.2099e+08  5.80%     - 1786s
     0     0 3.2099e+08    0 7139 3.0339e+08 3.2099e+08  5.80%     - 2126s
     0     0 3.2099e+08    0 7139 3.0339e+08 3.2099e+08  5.80%     - 2128s
     0     0 3.2099e+08    0 6772 3.0339e+08 3.2099e+08  5.80%     - 2129s
     0     2 3.2099e+08    0 6772 3.0339e+08 3.2099e+08  5.80%     - 2605s
     1     3 3.2099e+08    1 4958 3.0339e+08 3.2099e+08  5.80% 105510 2706s
     2     4 3.2099e+08    1 6942 3.0339e+08 3.2099e+08  5.80% 156377 2881s
     3     5 3.2099e+08    2 5460 3.0339e+08 3.2099e+08  5.80% 164946 3037s
     4     7 3.2099e+08    3 5139 3.0339e+08 3.2099e+08  5.80% 127929 3282s
H    6    11                    3.033972e+08 3.2099e+08  5.80% 128838 3560s

Cutting planes:
  MIR: 13
  Flow cover: 68
  RLT: 3084
  Relax-and-lift: 93

Explored 10 nodes (2465804 simplex iterations) in 3600.08 seconds (6649.14 work units)
Thread count was 20 (of 20 available processors)

Solution count 10: 3.03397e+08 3.03391e+08 3.03391e+08 ... 2.85402e+08

Time limit reached
Best objective 3.033971989713e+08, best bound 3.209937314641e+08, gap 5.7998%
